JOBS = 1..3;
MACHINES = 1..5;
SPEED = 3;
time = array3d(JOBS,MACHINES,1..SPEED,[153,37,27,157,38,28,207,50,37,153,37,27,56,13,10,207,50,37,81,20,14,215,52,38,83,20,15,54,13,9,125,30,22,218,53,39,198,48,35,57,13,10,167,40,30]);
energy = array3d(JOBS,MACHINES,1..SPEED,[21,69,76,20,68,75,12,60,69,21,69,76,57,87,90,12,60,69,44,81,86,11,59,68,43,81,86,58,87,91,28,74,80,11,58,67,13,61,70,56,87,90,18,67,74]);
precedence = array2d(JOBS,MACHINES,[1,3,4,0,2,1,3,2,4,0,3,4,2,1,0]);
ME = 1;
TE = 165;
st_old = array2d(JOBS,MACHINES,[153,362,427,0,306,13,278,63,394,0,313,438,278,221,13]);
SpeedScaling = array2d(JOBS,MACHINES,[1,2,2,1,1,2,1,1,1,2,1,3,3,1,1]);
